p cnf 16 32
-1 -6 -12 0
-4 -6 -16 0
2 11 -15 0
4 5 8 0
-1 9 -15 0
-2 5 -8 0
-5 7 -15 0
1 13 -14 0
-11 -12 -14 0
-4 -5 -6 0
5 -7 14 0
-3 5 -10 0
-8 -12 -16 0
-3 4 14 0
1 -5 -7 0
-3 -4 6 0
7 -8 -11 0
9 -10 16 0
3 5 -10 0
-3 4 -6 0
4 10 13 0
1 -7 15 0
2 3 15 0
3 5 13 0
11 -13 -15 0
-5 -8 -14 0
-8 13 -16 0
12 -14 -16 0
-2 7 -10 0
-12 -13 14 0
8 -9 15 0
-4 -11 -15 0
